%nproc=2
%mem=1GB
#p B3LYP/AUG-cc-pVTZ SCRF=(Solvent=Water) nosymm output=wfn

WATER_MONOMER0004

0 1
O       0.37991563     -0.08942212      0.21600211
H      -0.55435357     -0.19797397      0.43362614
H       0.17443794      0.28739609     -0.64962826

TRAINING_SET/WATER_MONOMER0004/WATER_MONOMER0004.wfn