%nproc=2
%mem=1GB
#p B3LYP/AUG-cc-pVTZ SCRF=(Solvent=Water) nosymm output=wfn

WATER_MONOMER0003

0 1
O       0.24626315      0.27573219      0.22445284
H      -0.65974842     -0.03423965      0.33149098
H       0.41348526     -0.24149254     -0.55594382

TRAINING_SET/WATER_MONOMER0003/WATER_MONOMER0003.wfn