37

C  -2.87730228   0.05737045   0.06642296
C  -1.64276314  -0.12012415   0.94406879
O  -1.19101894   0.84905016   1.54584098
C  -2.37543145   0.25669593  -1.39388947
C  -1.79538882   1.68229979  -1.63224132
N  -1.82155220   2.05132925  -3.06451207
H  -2.46838943   2.40851920  -1.06350120
C  -0.36746050   1.77700041  -1.18481659
O   0.07742665   3.01054034  -0.93282861
O   0.41394627   0.86808942  -1.12580233
N  -1.02881584  -1.31511751   1.04852369
C   0.03329370  -1.65489676   1.84948771
C   1.36028990  -1.25573066   1.18666863
O   2.15066969  -2.03161765   0.60602179
H  -0.01213972  -1.11685938   2.81058042
C  -0.04002737  -3.18364671   2.12283422
H  -1.00311250  -3.37279508   2.58115119
S   1.26411990  -3.58400951   3.20792227
H  -0.03167384  -3.74571185   1.16777575
H   2.20248035  -3.17219522   2.34172311
H  -1.35460481  -2.09046265   0.41685177
N   1.52145484   0.08169205   1.14861186
C   2.78295914   0.58044882   0.56099340
C   2.73725695   1.27552037  -0.85268611
O   2.73454899   2.49556950  -0.98586260
H   3.26049708   1.39315387   1.16772178
H   3.48692410  -0.22691169   0.47462208
H   0.79428601   0.68895035   1.44692642
O   3.00599633   0.47597689  -1.92130071
H   3.31977385  -0.35583765  -1.56720762
H   1.04723219   2.96071319  -0.70739031
H  -3.52223307  -0.82596575   0.02748159
H  -3.38573260   0.92374036   0.45085489
H  -1.59834011  -0.52867671  -1.65159106
H  -3.14321147   0.23355113  -2.25185991
H  -1.20368269   1.53204913  -3.66369610
H  -1.33027510   2.97829849  -3.17389945
