37

C  -1.48634715  -0.91752066  -2.31550746
C  -1.65563291  -0.58423928  -0.84401245
O  -2.77795521  -0.43142835  -0.39252118
C  -1.02332146   0.38950196  -3.09803336
C   0.58704079   0.56036003  -3.20511415
N   1.15686129   0.72734750  -1.84057796
H   1.06467949  -0.35282459  -3.64819630
C   0.64791236   1.84537835  -4.02719590
O   0.50884312   2.92486310  -3.27914757
O   0.56401534   1.73270107  -5.20908306
N  -0.56078860  -0.44068194  -0.07745282
C  -0.21612763   0.62245314   0.89814530
C   0.90454222   0.18202321   1.83953253
O   1.88292678   0.86639224   2.14864370
H   0.16465548   1.50212764   0.41980049
C  -1.40490266   0.99020844   1.91074399
H  -0.83192282   1.57827734   2.58557815
S  -2.08738865  -0.50798058   2.74017204
H  -2.15858152   1.58596332   1.34737558
H  -2.69471663  -0.97293801   1.69565189
H   0.28428107  -0.63977336  -0.61354353
N   0.65888041  -1.01904931   2.36218733
C   1.84333732  -1.68978604   2.97696102
C   1.41604800  -2.11380299   4.45462495
O   1.91472798  -3.09759803   4.90093095
H   1.90764345  -2.63632357   2.47491878
H   2.78139622  -1.11106149   2.88524051
H  -0.11766352  -1.63659456   2.26667789
O   0.54248670  -1.32690075   5.10067695
H   0.38440018  -0.43993657   4.70403789
H   0.49940289   3.68658307  -3.84091359
H  -0.68314335  -1.60926999  -2.50002234
H  -2.44023879  -1.44665975  -2.62875732
H  -1.37934015   0.31685206  -4.12529672
H  -1.41000445   1.27899467  -2.62213857
H   1.12989109   1.69616782  -1.61998936
H   2.08410347   0.48817496  -1.82439632
