37

C  -1.14738805  -0.61686655   2.13611055
C  -0.67253241   0.42836745   1.10669170
O  -1.07729186   1.61953510   1.06521315
C  -0.62181223  -2.06790610   2.13367498
C  -1.26669220  -2.96108547   1.10387743
N  -1.32959959  -4.38487232   1.69653240
H  -2.31496348  -2.64739706   1.11274872
C  -0.70493811  -3.16554783  -0.25537999
O  -1.36670842  -4.05455196  -0.98815883
O   0.33077499  -2.69493718  -0.70553266
N   0.26127800   0.01094331   0.26305305
C   0.51656043   0.47281629  -1.11416669
C   1.46877809   1.65575624  -1.06677674
O   2.58783434   1.52092031  -1.52874193
H   0.92739345  -0.31765335  -1.70878079
C  -0.77005676   0.90045962  -1.92326695
H  -1.40936820   1.56209234  -1.34088607
S  -1.73617369  -0.51392014  -2.54284347
H  -0.55070504   1.56558210  -2.74148491
H  -2.42013071  -0.66404375  -1.37827214
H   0.81538655  -0.77792401   0.53292276
N   1.05077658   2.64149977  -0.28078643
C   1.65719814   3.94562471  -0.08999520
C   2.47131219   4.47172631  -1.24947566
O   2.28094950   5.51985064  -1.82332605
H   0.74473676   4.58803876   0.01374748
H   2.13954584   4.00706161   0.89501166
H   0.13321410   2.54096175   0.09874385
O   3.50381926   3.73642065  -1.66059017
H   3.55123886   2.83330223  -1.24731706
H  -1.00676831  -4.09388834  -1.91220506
H  -0.84552179  -0.10615320   3.07764620
H  -2.26225757  -0.63516317   2.17221213
H   0.49425153  -2.05379558   2.06286045
H  -0.85927802  -2.46673358   3.12049842
H  -0.47845852  -4.86194121   1.52161266
H  -2.09440362  -4.93657852   1.44482906
