%chk=TRAINING_SET/WATER0001/WATER0001.chk
%nproc=2
%mem=1GB
#CCSD(T)/aug-cc-pVDZ nosymm

WATER0001

0 1
O      -14.18489633      2.78702924     21.97580519
H      -14.50376292      2.49728039     21.10071552
H      -14.12730590      3.75706408     21.85961217


